c read Graph
c width = 17
c time = 175 ms
c width = 5
c time = 206 ms
c width = 5
c time = 299898 ms
s td 322 6 378
b 1 86 188
b 2 168 188 189
b 3 115 189 190
b 4 66 190 191
b 5 2 214 215
b 6 3 331 332
b 7 302 331 332
b 8 5 348 349
b 9 341 348 349
b 10 180 199 200 279
b 11 184 197 301 302
b 12 142 197 198 199
b 13 199 200 204 279
b 14 83 204 205 206
b 15 54 206 207 213
b 16 73 213 214 218
b 17 70 218 219 350
b 18 54 279 280 289
b 19 73 289 290 294
b 20 70 294 295 301
b 21 197 301 302 340
b 22 142 340 341 349
b 23 142 197 199 340 349
b 24 197 199 301 340 349
b 25 54 206 213 279 289
b 26 73 213 218 289 294
b 27 70 218 294 301 350
b 28 83 199 204 206 279
b 29 83 199 301 349 350
b 30 83 199 206 279 301 350
b 31 206 213 279 289 301 350
b 32 213 218 289 294 301 350
b 33 213 289 294 301 350
b 34 53 347 348
b 35 341 347 348
b 36 110 346 347
b 37 341 346 347
b 38 181 345 346
b 39 341 345 346
b 40 166 344 345
b 41 341 344 345
b 42 171 343 344
b 43 341 343 344
b 44 24 342 343
b 45 341 342 343
b 46 45 341 342
b 47 81 339 340
b 48 302 339 340
b 49 33 338 339
b 50 302 338 339
b 51 22 337 338
b 52 302 337 338
b 53 112 336 337
b 54 302 336 337
b 55 34 335 336
b 56 302 335 336
b 57 74 334 335
b 58 302 334 335
b 59 109 333 334
b 60 302 333 334
b 61 92 332 333
b 62 302 332 333
b 63 39 330 331
b 64 302 330 331
b 65 178 329 330
b 66 302 329 330
b 67 165 328 329
b 68 302 328 329
b 69 52 327 328
b 70 302 327 328
b 71 77 326 327
b 72 302 326 327
b 73 118 325 326
b 74 302 325 326
b 75 59 324 325
b 76 302 324 325
b 77 144 323 324
b 78 302 323 324
b 79 46 322 323
b 80 302 322 323
b 81 23 321 322
b 82 302 321 322
b 83 156 320 321
b 84 302 320 321
b 85 104 319 320
b 86 302 319 320
b 87 25 318 319
b 88 302 318 319
b 89 88 317 318
b 90 302 317 318
b 91 128 316 317
b 92 302 316 317
b 93 146 315 316
b 94 302 315 316
b 95 99 314 315
b 96 302 314 315
b 97 38 313 314
b 98 302 313 314
b 99 64 312 313
b 100 302 312 313
b 101 91 311 312
b 102 302 311 312
b 103 18 310 311
b 104 302 310 311
b 105 13 309 310
b 106 302 309 310
b 107 43 308 309
b 108 302 308 309
b 109 149 307 308
b 110 302 307 308
b 111 116 306 307
b 112 302 306 307
b 113 105 305 306
b 114 302 305 306
b 115 48 304 305
b 116 302 304 305
b 117 26 303 304
b 118 302 303 304
b 119 163 302 303
b 120 148 300 301
b 121 295 300 301
b 122 94 299 300
b 123 295 299 300
b 124 85 298 299
b 125 295 298 299
b 126 79 297 298
b 127 295 297 298
b 128 158 296 297
b 129 295 296 297
b 130 150 295 296
b 131 62 293 294
b 132 290 293 294
b 133 159 292 293
b 134 290 292 293
b 135 126 291 292
b 136 290 291 292
b 137 137 290 291
b 138 15 288 289
b 139 280 288 289
b 140 164 287 288
b 141 280 287 288
b 142 28 286 287
b 143 280 286 287
b 144 20 285 286
b 145 280 285 286
b 146 106 284 285
b 147 280 284 285
b 148 155 283 284
b 149 280 283 284
b 150 120 282 283
b 151 280 282 283
b 152 138 281 282
b 153 280 281 282
b 154 167 280 281
b 155 72 219 350
b 156 8 217 218
b 157 214 217 218
b 158 49 216 217
b 159 214 216 217
b 160 4 215 216
b 161 214 215 216
b 162 114 212 213
b 163 207 212 213
b 164 21 211 212
b 165 207 211 212
b 166 57 210 211
b 167 207 210 211
b 168 124 209 210
b 169 207 209 210
b 170 130 208 209
b 171 207 208 209
b 172 35 207 208
b 173 27 205 206
b 174 147 203 204
b 175 200 203 204
b 176 152 202 203
b 177 200 202 203
b 178 71 201 202
b 179 200 201 202
b 180 80 200 201
b 181 103 198 199
b 182 151 196 197
b 183 184 196 197
b 184 177 195 196
b 185 184 195 196
b 186 127 194 195
b 187 184 194 195
b 188 69 193 194
b 189 184 193 194
b 190 67 192 193
b 191 184 192 193
b 192 184 191 192
b 193 61 278 279
b 194 180 278 279
b 195 68 277 278
b 196 180 277 278
b 197 131 276 277
b 198 180 276 277
b 199 101 275 276
b 200 180 275 276
b 201 31 274 275
b 202 180 274 275
b 203 153 273 274
b 204 180 273 274
b 205 139 272 273
b 206 180 272 273
b 207 180 271 272
b 208 12 353 354
b 209 72 353 354
b 210 32 361 362
b 211 72 361 362
b 212 36 372 373
b 213 72 372 373
b 214 50 377 378
b 215 72 377 378
b 216 72 143 378
b 217 72 376 377
b 218 98 376 377
b 219 51 375 376
b 220 72 375 376
b 221 72 374 375
b 222 82 374 375
b 223 72 373 374
b 224 170 373 374
b 225 72 371 372
b 226 84 371 372
b 227 44 370 371
b 228 72 370 371
b 229 58 369 370
b 230 72 369 370
b 231 40 368 369
b 232 72 368 369
b 233 72 367 368
b 234 76 367 368
b 235 72 366 367
b 236 134 366 367
b 237 72 365 366
b 238 169 365 366
b 239 72 364 365
b 240 132 364 365
b 241 55 363 364
b 242 72 363 364
b 243 72 362 363
b 244 157 362 363
b 245 72 360 361
b 246 100 360 361
b 247 47 359 360
b 248 72 359 360
b 249 72 358 359
b 250 123 358 359
b 251 72 357 358
b 252 136 357 358
b 253 72 356 357
b 254 113 356 357
b 255 72 355 356
b 256 140 355 356
b 257 72 354 355
b 258 93 354 355
b 259 72 352 353
b 260 141 352 353
b 261 72 351 352
b 262 176 351 352
b 263 56 350 351
b 264 72 350 351
b 265 6 222 223
b 266 72 222 223
b 267 19 223 224
b 268 72 223 224
b 269 72 145 224
b 270 72 221 222
b 271 96 221 222
b 272 60 220 221
b 273 72 220 221
b 274 72 219 220
b 275 186 219 220
b 276 9 270 271
b 277 174 269 270
b 278 30 268 269
b 279 182 267 268
b 280 160 266 267
b 281 162 265 266
b 282 122 264 265
b 283 95 263 264
b 284 107 262 263
b 285 133 261 262
b 286 14 260 261
b 287 102 259 260
b 288 108 258 259
b 289 111 257 258
b 290 78 256 257
b 291 185 225
b 292 173 225 226
b 293 172 226 227
b 294 42 227 228
b 295 75 228 229
b 296 187 229 230
b 297 63 230 231
b 298 179 231 232
b 299 17 232 233
b 300 41 233 234
b 301 16 234 235
b 302 97 235 236
b 303 117 236 237
b 304 119 237 238
b 305 125 238 239
b 306 29 239 240
b 307 10 240 241
b 308 183 241 242
b 309 121 242 243
b 310 175 243 244
b 311 154 244 245
b 312 87 245 246
b 313 90 246 247
b 314 65 247 248
b 315 7 248 249
b 316 129 249 250
b 317 37 250 251
b 318 135 251 252
b 319 89 252 253
b 320 11 253 254
b 321 161 254 255
b 322 1 255 256
1 2
2 3
3 4
4 192
5 161
6 7
7 64
7 62
8 9
9 35
9 22
10 194
10 13
11 183
11 21
12 181
12 23
13 175
13 28
14 173
14 28
15 163
15 25
16 157
16 26
17 155
17 27
18 139
18 25
19 132
19 26
20 121
20 27
21 48
21 24
22 23
23 24
24 29
25 31
26 32
27 32
28 30
29 30
30 31
31 33
32 33
34 35
35 37
36 37
37 39
38 39
39 41
40 41
41 43
42 43
43 45
44 45
45 46
47 48
48 50
49 50
50 52
51 52
52 54
53 54
54 56
55 56
56 58
57 58
58 60
59 60
60 62
61 62
63 64
64 66
65 66
66 68
67 68
68 70
69 70
70 72
71 72
72 74
73 74
74 76
75 76
76 78
77 78
78 80
79 80
80 82
81 82
82 84
83 84
84 86
85 86
86 88
87 88
88 90
89 90
90 92
91 92
92 94
93 94
94 96
95 96
96 98
97 98
98 100
99 100
100 102
101 102
102 104
103 104
104 106
105 106
106 108
107 108
108 110
109 110
110 112
111 112
112 114
113 114
114 116
115 116
116 118
117 118
118 119
120 121
121 123
122 123
123 125
124 125
125 127
126 127
127 129
128 129
129 130
131 132
132 134
133 134
134 136
135 136
136 137
138 139
139 141
140 141
141 143
142 143
143 145
144 145
145 147
146 147
147 149
148 149
149 151
150 151
151 153
152 153
153 154
155 274
155 264
156 157
157 159
158 159
159 161
160 161
162 163
163 165
164 165
165 167
166 167
167 169
168 169
169 171
170 171
171 172
174 175
175 177
176 177
177 179
178 179
179 180
182 183
183 185
184 185
185 187
186 187
187 189
188 189
189 191
190 191
191 192
193 194
194 196
195 196
196 198
197 198
198 200
199 200
200 202
201 202
202 204
203 204
204 206
205 206
206 207
207 276
208 209
209 259
209 257
210 211
211 245
211 243
212 213
213 225
213 223
214 215
215 217
215 216
217 220
217 218
219 220
220 221
221 223
221 222
223 224
225 228
225 226
227 228
228 230
229 230
230 232
231 232
232 233
233 235
233 234
235 237
235 236
237 239
237 238
239 242
239 240
241 242
242 243
243 244
245 248
245 246
247 248
248 249
249 251
249 250
251 253
251 252
253 255
253 254
255 257
255 256
257 258
259 261
259 260
261 264
261 262
263 264
265 266
266 270
266 268
267 268
268 269
270 273
270 271
272 273
273 274
274 275
276 277
277 278
278 279
279 280
280 281
281 282
282 283
283 284
284 285
285 286
286 287
287 288
288 289
289 290
290 322
291 292
292 293
293 294
294 295
295 296
296 297
297 298
298 299
299 300
300 301
301 302
302 303
303 304
304 305
305 306
306 307
307 308
308 309
309 310
310 311
311 312
312 313
313 314
314 315
315 316
316 317
317 318
318 319
319 320
320 321
321 322
